p edge 65 1040
e 1 2
e 1 3
e 1 4
e 1 5
e 1 6
e 1 7
e 1 8
e 1 9
e 1 10
e 1 11
e 1 12
e 1 13
e 1 14
e 1 15
e 1 16
e 1 17
e 1 18
e 1 19
e 1 20
e 1 21
e 1 22
e 1 23
e 1 24
e 1 25
e 1 26
e 1 27
e 1 28
e 1 29
e 1 30
e 1 31
e 1 32
e 1 33
e 2 3
e 2 4
e 2 5
e 2 6
e 2 7
e 2 8
e 2 9
e 2 10
e 2 11
e 2 12
e 2 13
e 2 14
e 2 15
e 2 16
e 2 17
e 2 34
e 2 35
e 2 36
e 2 37
e 2 38
e 2 39
e 2 40
e 2 41
e 2 42
e 2 43
e 2 44
e 2 45
e 2 46
e 2 47
e 2 48
e 2 49
e 3 9
e 3 11
e 3 12
e 3 17
e 3 18
e 3 19
e 3 20
e 3 21
e 3 22
e 3 25
e 3 26
e 3 31
e 3 32
e 3 33
e 3 34
e 3 35
e 3 36
e 3 38
e 3 41
e 3 43
e 3 44
e 3 45
e 3 48
e 3 49
e 3 50
e 3 55
e 3 56
e 3 57
e 3 62
e 3 63
e 4 5
e 4 9
e 4 12
e 4 15
e 4 19
e 4 22
e 4 23
e 4 24
e 4 25
e 4 27
e 4 28
e 4 29
e 4 30
e 4 33
e 4 35
e 4 36
e 4 37
e 4 39
e 4 40
e 4 42
e 4 45
e 4 47
e 4 48
e 4 49
e 4 50
e 4 55
e 4 56
e 4 60
e 4 61
e 4 64
e 5 7
e 5 13
e 5 14
e 5 16
e 5 19
e 5 20
e 5 22
e 5 23
e 5 26
e 5 27
e 5 28
e 5 29
e 5 32
e 5 34
e 5 37
e 5 38
e 5 40
e 5 41
e 5 43
e 5 45
e 5 48
e 5 49
e 5 52
e 5 53
e 5 55
e 5 59
e 5 62
e 5 64
e 5 65
e 6 7
e 6 11
e 6 13
e 6 14
e 6 17
e 6 18
e 6 19
e 6 20
e 6 23
e 6 24
e 6 25
e 6 29
e 6 30
e 6 33
e 6 34
e 6 38
e 6 39
e 6 41
e 6 42
e 6 44
e 6 46
e 6 47
e 6 49
e 6 50
e 6 53
e 6 54
e 6 58
e 6 61
e 6 62
e 6 64
e 7 10
e 7 11
e 7 16
e 7 18
e 7 20
e 7 23
e 7 25
e 7 26
e 7 28
e 7 30
e 7 31
e 7 32
e 7 35
e 7 36
e 7 37
e 7 41
e 7 42
e 7 43
e 7 44
e 7 45
e 7 46
e 7 52
e 7 54
e 7 56
e 7 60
e 7 61
e 7 64
e 7 65
e 8 9
e 8 10
e 8 12
e 8 14
e 8 15
e 8 16
e 8 18
e 8 19
e 8 20
e 8 23
e 8 27
e 8 28
e 8 31
e 8 33
e 8 34
e 8 35
e 8 39
e 8 40
e 8 41
e 8 42
e 8 43
e 8 49
e 8 51
e 8 54
e 8 57
e 8 58
e 8 59
e 8 61
e 8 63
e 8 65
e 9 15
e 9 16
e 9 17
e 9 18
e 9 21
e 9 23
e 9 24
e 9 26
e 9 30
e 9 32
e 9 33
e 9 37
e 9 39
e 9 40
e 9 42
e 9 43
e 9 44
e 9 45
e 9 49
e 9 50
e 9 52
e 9 53
e 9 58
e 9 60
e 9 62
e 9 63
e 9 65
e 10 11
e 10 12
e 10 15
e 10 16
e 10 21
e 10 24
e 10 25
e 10 27
e 10 28
e 10 29
e 10 31
e 10 32
e 10 34
e 10 36
e 10 38
e 10 40
e 10 42
e 10 46
e 10 48
e 10 49
e 10 52
e 10 53
e 10 54
e 10 56
e 10 57
e 10 58
e 10 60
e 10 62
e 11 14
e 11 17
e 11 21
e 11 22
e 11 23
e 11 24
e 11 27
e 11 31
e 11 32
e 11 33
e 11 34
e 11 36
e 11 37
e 11 38
e 11 39
e 11 43
e 11 47
e 11 48
e 11 56
e 11 58
e 11 59
e 11 60
e 11 61
e 11 63
e 11 64
e 11 65
e 12 13
e 12 17
e 12 19
e 12 22
e 12 27
e 12 28
e 12 29
e 12 30
e 12 31
e 12 32
e 12 35
e 12 36
e 12 39
e 12 41
e 12 42
e 12 44
e 12 46
e 12 47
e 12 52
e 12 55
e 12 57
e 12 58
e 12 62
e 12 63
e 12 64
e 12 65
e 13 14
e 13 15
e 13 17
e 13 18
e 13 21
e 13 22
e 13 26
e 13 27
e 13 28
e 13 30
e 13 33
e 13 38
e 13 40
e 13 41
e 13 44
e 13 45
e 13 46
e 13 47
e 13 48
e 13 51
e 13 52
e 13 53
e 13 56
e 13 57
e 13 58
e 13 61
e 13 65
e 14 15
e 14 17
e 14 19
e 14 20
e 14 27
e 14 29
e 14 31
e 14 32
e 14 33
e 14 37
e 14 40
e 14 43
e 14 44
e 14 46
e 14 47
e 14 49
e 14 50
e 14 51
e 14 52
e 14 54
e 14 55
e 14 56
e 14 59
e 14 60
e 14 63
e 15 16
e 15 18
e 15 22
e 15 25
e 15 26
e 15 30
e 15 31
e 15 33
e 15 36
e 15 37
e 15 38
e 15 46
e 15 47
e 15 48
e 15 49
e 15 50
e 15 51
e 15 54
e 15 57
e 15 59
e 15 60
e 15 62
e 15 64
e 15 65
e 16 17
e 16 21
e 16 24
e 16 25
e 16 26
e 16 28
e 16 29
e 16 31
e 16 39
e 16 41
e 16 43
e 16 44
e 16 45
e 16 47
e 16 48
e 16 51
e 16 53
e 16 54
e 16 55
e 16 59
e 16 61
e 16 62
e 16 63
e 16 64
e 17 20
e 17 21
e 17 24
e 17 29
e 17 30
e 17 32
e 17 35
e 17 42
e 17 45
e 17 46
e 17 48
e 17 49
e 17 51
e 17 53
e 17 55
e 17 57
e 17 59
e 17 60
e 17 61
e 17 63
e 17 64
e 17 65
e 18 20
e 18 21
e 18 22
e 18 23
e 18 25
e 18 26
e 18 27
e 18 29
e 18 34
e 18 35
e 18 37
e 18 39
e 18 45
e 18 46
e 18 47
e 18 49
e 18 52
e 18 54
e 18 56
e 18 57
e 18 61
e 18 62
e 18 63
e 18 65
e 19 21
e 19 23
e 19 25
e 19 28
e 19 29
e 19 30
e 19 31
e 19 33
e 19 34
e 19 35
e 19 36
e 19 37
e 19 38
e 19 41
e 19 44
e 19 49
e 19 51
e 19 52
e 19 53
e 19 59
e 19 60
e 19 61
e 19 62
e 19 63
e 20 22
e 20 24
e 20 26
e 20 28
e 20 29
e 20 30
e 20 31
e 20 35
e 20 36
e 20 38
e 20 39
e 20 40
e 20 42
e 20 43
e 20 49
e 20 50
e 20 53
e 20 54
e 20 55
e 20 56
e 20 57
e 20 59
e 20 65
e 21 23
e 21 24
e 21 26
e 21 27
e 21 28
e 21 30
e 21 34
e 21 35
e 21 36
e 21 37
e 21 44
e 21 47
e 21 48
e 21 49
e 21 51
e 21 52
e 21 53
e 21 54
e 21 55
e 21 56
e 21 58
e 21 59
e 22 23
e 22 24
e 22 25
e 22 27
e 22 31
e 22 32
e 22 36
e 22 38
e 22 39
e 22 41
e 22 42
e 22 45
e 22 47
e 22 48
e 22 50
e 22 51
e 22 52
e 22 53
e 22 54
e 22 59
e 22 63
e 22 65
e 23 24
e 23 30
e 23 31
e 23 33
e 23 34
e 23 37
e 23 40
e 23 41
e 23 42
e 23 45
e 23 46
e 23 48
e 23 52
e 23 54
e 23 55
e 23 57
e 23 58
e 23 59
e 23 63
e 23 64
e 24 25
e 24 28
e 24 29
e 24 33
e 24 34
e 24 36
e 24 39
e 24 40
e 24 41
e 24 43
e 24 46
e 24 47
e 24 50
e 24 51
e 24 52
e 24 53
e 24 55
e 24 57
e 24 60
e 24 65
e 25 27
e 25 29
e 25 32
e 25 33
e 25 35
e 25 37
e 25 41
e 25 42
e 25 43
e 25 44
e 25 46
e 25 48
e 25 50
e 25 51
e 25 53
e 25 56
e 25 57
e 25 59
e 25 61
e 25 62
e 26 27
e 26 29
e 26 30
e 26 31
e 26 32
e 26 34
e 26 36
e 26 37
e 26 38
e 26 39
e 26 40
e 26 41
e 26 44
e 26 50
e 26 51
e 26 55
e 26 57
e 26 58
e 26 60
e 26 61
e 26 64
e 27 28
e 27 32
e 27 34
e 27 37
e 27 39
e 27 42
e 27 43
e 27 46
e 27 49
e 27 50
e 27 51
e 27 53
e 27 55
e 27 56
e 27 58
e 27 61
e 27 63
e 27 64
e 28 30
e 28 33
e 28 34
e 28 35
e 28 38
e 28 43
e 28 44
e 28 45
e 28 47
e 28 50
e 28 53
e 28 54
e 28 56
e 28 57
e 28 60
e 28 63
e 28 64
e 28 65
e 29 32
e 29 35
e 29 37
e 29 38
e 29 39
e 29 40
e 29 47
e 29 48
e 29 52
e 29 54
e 29 55
e 29 57
e 29 58
e 29 60
e 29 61
e 29 62
e 29 63
e 30 31
e 30 35
e 30 38
e 30 39
e 30 42
e 30 43
e 30 46
e 30 48
e 30 50
e 30 51
e 30 52
e 30 56
e 30 58
e 30 59
e 30 60
e 30 62
e 30 64
e 31 36
e 31 40
e 31 41
e 31 45
e 31 46
e 31 47
e 31 50
e 31 53
e 31 55
e 31 56
e 31 58
e 31 59
e 31 60
e 31 61
e 31 62
e 31 63
e 32 33
e 32 34
e 32 35
e 32 40
e 32 42
e 32 44
e 32 45
e 32 50
e 32 51
e 32 52
e 32 54
e 32 58
e 32 59
e 32 60
e 32 62
e 32 64
e 32 65
e 33 36
e 33 38
e 33 40
e 33 43
e 33 44
e 33 45
e 33 51
e 33 54
e 33 55
e 33 56
e 33 57
e 33 58
e 33 61
e 33 62
e 33 64
e 33 65
e 34 35
e 34 38
e 34 39
e 34 40
e 34 41
e 34 45
e 34 46
e 34 47
e 34 49
e 34 50
e 34 51
e 34 57
e 34 59
e 34 60
e 34 62
e 34 64
e 35 36
e 35 37
e 35 40
e 35 43
e 35 45
e 35 46
e 35 47
e 35 48
e 35 50
e 35 51
e 35 54
e 35 58
e 35 59
e 35 61
e 35 65
e 36 37
e 36 38
e 36 39
e 36 40
e 36 44
e 36 46
e 36 49
e 36 51
e 36 52
e 36 53
e 36 54
e 36 55
e 36 61
e 36 64
e 36 65
e 37 38
e 37 42
e 37 43
e 37 44
e 37 46
e 37 47
e 37 53
e 37 55
e 37 57
e 37 58
e 37 59
e 37 60
e 37 63
e 37 65
e 38 39
e 38 42
e 38 43
e 38 45
e 38 48
e 38 51
e 38 53
e 38 54
e 38 57
e 38 58
e 38 60
e 38 62
e 38 63
e 39 40
e 39 42
e 39 43
e 39 44
e 39 47
e 39 51
e 39 52
e 39 56
e 39 59
e 39 61
e 39 62
e 39 63
e 39 64
e 40 44
e 40 45
e 40 46
e 40 48
e 40 50
e 40 52
e 40 53
e 40 56
e 40 57
e 40 58
e 40 59
e 40 61
e 41 42
e 41 43
e 41 44
e 41 47
e 41 48
e 41 49
e 41 50
e 41 51
e 41 52
e 41 55
e 41 57
e 41 58
e 41 60
e 41 61
e 41 65
e 42 44
e 42 45
e 42 49
e 42 51
e 42 53
e 42 54
e 42 55
e 42 56
e 42 57
e 42 58
e 42 59
e 42 60
e 43 46
e 43 48
e 43 50
e 43 51
e 43 52
e 43 55
e 43 56
e 43 58
e 43 62
e 43 63
e 43 65
e 44 47
e 44 50
e 44 52
e 44 53
e 44 54
e 44 56
e 44 57
e 44 59
e 44 63
e 44 64
e 45 46
e 45 47
e 45 51
e 45 53
e 45 54
e 45 55
e 45 56
e 45 60
e 45 61
e 45 62
e 45 63
e 46 50
e 46 51
e 46 52
e 46 53
e 46 55
e 46 57
e 46 62
e 46 63
e 46 64
e 47 50
e 47 54
e 47 55
e 47 56
e 47 58
e 47 59
e 47 60
e 47 62
e 47 65
e 48 49
e 48 50
e 48 52
e 48 54
e 48 56
e 48 57
e 48 58
e 48 59
e 48 61
e 48 63
e 48 64
e 49 50
e 49 52
e 49 53
e 49 54
e 49 55
e 49 56
e 49 60
e 49 61
e 49 62
e 49 64
e 49 65
e 50 53
e 50 54
e 50 58
e 50 60
e 50 63
e 50 64
e 51 52
e 51 54
e 51 55
e 51 59
e 51 60
e 51 61
e 52 54
e 52 56
e 52 60
e 52 62
e 52 63
e 52 65
e 53 58
e 53 59
e 53 61
e 53 62
e 53 63
e 53 65
e 54 55
e 54 58
e 54 63
e 54 64
e 55 56
e 55 57
e 55 58
e 55 62
e 55 64
e 56 57
e 56 59
e 56 60
e 56 61
e 56 62
e 57 59
e 57 60
e 57 63
e 57 64
e 57 65
e 58 61
e 58 62
e 58 65
e 59 62
e 59 64
e 59 65
e 60 61
e 60 63
e 60 65
e 61 63
e 61 64
e 61 65
e 62 64
e 62 65
e 63 64
e 64 65
